p cnf 19 9
a 1 0
e 2 0
a 3 4 5 0
e 6 0
a 7 0
e 8 0
a 9 0
e 10 11 12 13 0
a 14 0
e 15 16 0
a 17 0
e 18 0
a 19 0
-7 17 0
-12 6 -3 0
6 -7 -19 9 0
-7 8 16 -5 18 0
6 -8 -18 5 0
-10 -5 -18 0
-13 12 -7 -2 -19 0
15 4 -2 -3 0
9 -19 -6 -3 10 0
